c colouring generated by benchmark framework
p edge 450 8263
v 1 24
v 2 9
v 3 21
v 4 24
v 5 2
v 6 7
v 7 24
v 8 19
v 9 1
v 10 4
v 11 24
v 12 20
v 13 23
v 14 17
v 15 13
v 16 1
v 17 22
v 18 23
v 19 1
v 20 13
v 21 17
v 22 10
v 23 15
v 24 6
v 25 3
v 26 21
v 27 14
v 28 13
v 29 6
v 30 4
v 31 11
v 32 11
v 33 21
v 34 9
v 35 18
v 36 2
v 37 13
v 38 1
v 39 5
v 40 12
v 41 4
v 42 0
v 43 9
v 44 23
v 45 19
v 46 17
v 47 14
v 48 11
v 49 0
v 50 20
v 51 16
v 52 18
v 53 2
v 54 3
v 55 24
v 56 7
v 57 2
v 58 8
v 59 14
v 60 21
v 61 17
v 62 5
v 63 5
v 64 18
v 65 4
v 66 0
v 67 9
v 68 0
v 69 8
v 70 6
v 71 18
v 72 14
v 73 16
v 74 8
v 75 20
v 76 7
v 77 19
v 78 8
v 79 2
v 80 24
v 81 8
v 82 2
v 83 1
v 84 12
v 85 17
v 86 24
v 87 23
v 88 20
v 89 16
v 90 0
v 91 23
v 92 17
v 93 7
v 94 16
v 95 2
v 96 17
v 97 2
v 98 10
v 99 3
v 100 5
v 101 4
v 102 18
v 103 12
v 104 4
v 105 2
v 106 22
v 107 15
v 108 13
v 109 1
v 110 16
v 111 4
v 112 10
v 113 4
v 114 5
v 115 0
v 116 3
v 117 2
v 118 13
v 119 2
v 120 5
v 121 6
v 122 7
v 123 11
v 124 6
v 125 16
v 126 5
v 127 0
v 128 22
v 129 9
v 130 23
v 131 17
v 132 22
v 133 15
v 134 10
v 135 11
v 136 12
v 137 15
v 138 8
v 139 24
v 140 8
v 141 4
v 142 3
v 143 23
v 144 24
v 145 14
v 146 17
v 147 21
v 148 4
v 149 21
v 150 24
v 151 7
v 152 18
v 153 9
v 154 17
v 155 0
v 156 14
v 157 19
v 158 23
v 159 9
v 160 19
v 161 0
v 162 16
v 163 7
v 164 16
v 165 0
v 166 15
v 167 15
v 168 8
v 169 7
v 170 5
v 171 0
v 172 17
v 173 6
v 174 17
v 175 18
v 176 1
v 177 22
v 178 2
v 179 0
v 180 6
v 181 14
v 182 17
v 183 1
v 184 13
v 185 14
v 186 0
v 187 21
v 188 12
v 189 22
v 190 22
v 191 16
v 192 17
v 193 15
v 194 22
v 195 2
v 196 17
v 197 16
v 198 10
v 199 1
v 200 2
v 201 24
v 202 22
v 203 14
v 204 11
v 205 19
v 206 1
v 207 1
v 208 16
v 209 9
v 210 10
v 211 5
v 212 10
v 213 24
v 214 18
v 215 5
v 216 0
v 217 9
v 218 19
v 219 1
v 220 13
v 221 13
v 222 13
v 223 18
v 224 16
v 225 21
v 226 22
v 227 5
v 228 12
v 229 2
v 230 14
v 231 7
v 232 11
v 233 18
v 234 16
v 235 20
v 236 2
v 237 1
v 238 16
v 239 3
v 240 6
v 241 15
v 242 9
v 243 0
v 244 7
v 245 13
v 246 4
v 247 15
v 248 23
v 249 18
v 250 0
v 251 7
v 252 8
v 253 20
v 254 19
v 255 14
v 256 1
v 257 17
v 258 16
v 259 23
v 260 19
v 261 10
v 262 9
v 263 0
v 264 14
v 265 4
v 266 6
v 267 22
v 268 4
v 269 6
v 270 14
v 271 9
v 272 4
v 273 2
v 274 7
v 275 7
v 276 23
v 277 22
v 278 8
v 279 15
v 280 5
v 281 16
v 282 5
v 283 9
v 284 24
v 285 16
v 286 24
v 287 6
v 288 6
v 289 22
v 290 21
v 291 14
v 292 24
v 293 21
v 294 12
v 295 1
v 296 4
v 297 3
v 298 20
v 299 20
v 300 3
v 301 3
v 302 0
v 303 8
v 304 11
v 305 3
v 306 5
v 307 14
v 308 11
v 309 23
v 310 15
v 311 14
v 312 3
v 313 7
v 314 7
v 315 23
v 316 21
v 317 17
v 318 16
v 319 7
v 320 23
v 321 0
v 322 5
v 323 10
v 324 18
v 325 5
v 326 3
v 327 9
v 328 0
v 329 22
v 330 11
v 331 13
v 332 17
v 333 24
v 334 10
v 335 9
v 336 9
v 337 22
v 338 0
v 339 7
v 340 15
v 341 13
v 342 6
v 343 24
v 344 16
v 345 12
v 346 19
v 347 19
v 348 8
v 349 10
v 350 14
v 351 19
v 352 21
v 353 8
v 354 3
v 355 9
v 356 5
v 357 3
v 358 22
v 359 5
v 360 15
v 361 20
v 362 6
v 363 14
v 364 19
v 365 15
v 366 3
v 367 6
v 368 3
v 369 4
v 370 3
v 371 12
v 372 22
v 373 10
v 374 9
v 375 20
v 376 5
v 377 12
v 378 1
v 379 0
v 380 21
v 381 10
v 382 8
v 383 14
v 384 16
v 385 11
v 386 9
v 387 13
v 388 4
v 389 8
v 390 7
v 391 11
v 392 16
v 393 7
v 394 5
v 395 8
v 396 1
v 397 2
v 398 12
v 399 11
v 400 6
v 401 12
v 402 4
v 403 2
v 404 12
v 405 6
v 406 24
v 407 7
v 408 0
v 409 16
v 410 17
v 411 5
v 412 3
v 413 11
v 414 2
v 415 11
v 416 1
v 417 12
v 418 1
v 419 13
v 420 8
v 421 20
v 422 24
v 423 24
v 424 11
v 425 12
v 426 14
v 427 1
v 428 20
v 429 2
v 430 0
v 431 18
v 432 1
v 433 1
v 434 19
v 435 0
v 436 14
v 437 21
v 438 22
v 439 10
v 440 1
v 441 0
v 442 0
v 443 6
v 444 22
v 445 13
v 446 11
v 447 21
v 448 2
v 449 1
v 450 12
